c "208261.clq"
p edge 200 784
e 1 5
e 1 6
e 1 8
e 1 9
e 1 13
e 1 15
e 1 21
e 1 29
e 1 31
e 1 34
e 1 42
e 1 43
e 1 48
e 1 72
e 1 88
e 1 94
e 1 95
e 1 111
e 1 112
e 1 114
e 1 145
e 1 161
e 2 5
e 2 6
e 2 7
e 2 14
e 2 17
e 2 18
e 2 19
e 2 23
e 2 24
e 2 33
e 2 37
e 2 38
e 2 40
e 2 44
e 2 47
e 2 65
e 2 77
e 2 83
e 2 84
e 2 105
e 2 116
e 2 129
e 3 5
e 3 6
e 3 7
e 3 8
e 3 9
e 3 12
e 3 15
e 3 18
e 3 20
e 3 21
e 3 23
e 3 24
e 3 26
e 3 27
e 3 31
e 3 32
e 3 44
e 3 52
e 3 53
e 3 54
e 3 56
e 3 70
e 3 71
e 3 81
e 3 98
e 3 106
e 3 107
e 3 119
e 3 120
e 3 121
e 3 128
e 3 134
e 3 135
e 3 136
e 3 141
e 3 143
e 3 145
e 3 163
e 3 167
e 3 188
e 3 189
e 3 192
e 3 194
e 4 5
e 5 6
e 5 7
e 5 8
e 5 9
e 5 11
e 5 12
e 5 13
e 5 16
e 5 18
e 5 19
e 5 20
e 5 22
e 5 26
e 5 27
e 5 28
e 5 30
e 5 31
e 5 36
e 5 46
e 5 51
e 5 55
e 5 69
e 5 85
e 5 86
e 5 90
e 5 91
e 5 92
e 5 93
e 5 105
e 5 107
e 5 108
e 5 119
e 5 122
e 5 134
e 5 135
e 5 154
e 5 166
e 5 169
e 5 177
e 5 178
e 5 179
e 5 180
e 5 199
e 6 7
e 6 10
e 6 15
e 6 16
e 6 17
e 6 18
e 6 22
e 6 60
e 6 67
e 6 70
e 6 73
e 6 82
e 6 85
e 6 103
e 6 117
e 6 137
e 6 138
e 6 150
e 6 151
e 6 174
e 6 177
e 6 182
e 6 197
e 7 8
e 7 9
e 7 10
e 7 11
e 7 24
e 7 25
e 7 26
e 7 27
e 7 32
e 7 35
e 7 46
e 7 48
e 7 49
e 7 52
e 7 59
e 7 67
e 7 77
e 7 87
e 7 104
e 7 123
e 7 125
e 7 131
e 7 141
e 7 144
e 7 146
e 7 158
e 7 168
e 7 175
e 7 193
e 8 10
e 8 11
e 8 16
e 8 20
e 8 21
e 8 28
e 8 33
e 8 35
e 8 40
e 8 48
e 8 49
e 8 57
e 8 71
e 8 74
e 8 75
e 8 81
e 8 86
e 8 88
e 8 89
e 8 98
e 8 99
e 8 101
e 8 112
e 8 125
e 8 130
e 8 138
e 8 147
e 8 155
e 8 179
e 8 182
e 8 188
e 8 189
e 8 198
e 9 10
e 9 11
e 9 12
e 9 13
e 9 14
e 9 15
e 9 17
e 9 19
e 9 29
e 9 36
e 9 43
e 9 49
e 9 61
e 9 80
e 9 99
e 9 103
e 9 105
e 9 133
e 9 136
e 9 159
e 9 161
e 10 14
e 10 35
e 10 39
e 10 41
e 10 45
e 10 65
e 10 71
e 10 123
e 10 130
e 10 164
e 10 195
e 11 12
e 11 13
e 11 17
e 11 22
e 11 26
e 11 28
e 11 30
e 11 38
e 11 39
e 11 42
e 11 48
e 11 59
e 11 61
e 11 62
e 11 70
e 11 75
e 11 85
e 11 94
e 11 106
e 11 109
e 11 110
e 11 111
e 11 122
e 11 127
e 11 134
e 11 159
e 11 166
e 11 172
e 11 173
e 11 176
e 11 177
e 11 190
e 12 23
e 12 38
e 12 56
e 12 82
e 12 122
e 12 144
e 12 180
e 13 14
e 13 23
e 13 25
e 13 30
e 13 44
e 13 62
e 13 66
e 13 78
e 13 138
e 13 139
e 13 168
e 13 194
e 14 16
e 14 36
e 14 105
e 14 187
e 15 22
e 15 25
e 15 39
e 15 41
e 15 67
e 15 69
e 15 72
e 15 124
e 15 156
e 15 157
e 15 169
e 15 172
e 15 192
e 15 193
e 16 139
e 17 19
e 17 43
e 17 50
e 17 61
e 17 87
e 17 100
e 17 107
e 17 112
e 17 116
e 17 148
e 17 158
e 17 165
e 17 190
e 17 198
e 18 20
e 18 29
e 18 34
e 18 37
e 18 41
e 18 42
e 18 64
e 18 66
e 18 80
e 18 101
e 18 103
e 18 110
e 18 149
e 18 154
e 18 165
e 18 173
e 19 21
e 19 24
e 19 28
e 19 33
e 19 37
e 19 38
e 19 44
e 19 51
e 19 90
e 19 96
e 19 123
e 19 158
e 19 184
e 20 29
e 20 32
e 20 37
e 20 49
e 20 59
e 20 64
e 20 65
e 20 68
e 20 83
e 20 121
e 20 124
e 20 162
e 20 168
e 20 174
e 20 178
e 20 181
e 20 187
e 20 199
e 21 25
e 21 30
e 21 31
e 21 32
e 21 34
e 21 36
e 21 39
e 21 55
e 21 58
e 21 65
e 21 73
e 21 80
e 21 107
e 21 115
e 21 124
e 21 125
e 21 128
e 21 142
e 21 154
e 21 157
e 21 179
e 22 42
e 22 47
e 22 53
e 22 67
e 22 85
e 22 98
e 22 99
e 22 132
e 22 145
e 22 161
e 22 165
e 22 186
e 23 41
e 23 47
e 23 60
e 23 68
e 23 102
e 23 123
e 24 157
e 24 177
e 24 188
e 25 27
e 25 54
e 25 79
e 25 84
e 25 127
e 25 132
e 26 50
e 26 56
e 26 60
e 26 63
e 26 78
e 26 79
e 26 106
e 27 35
e 27 47
e 27 55
e 27 56
e 27 57
e 27 63
e 27 66
e 27 96
e 27 100
e 27 115
e 27 142
e 27 186
e 28 43
e 28 53
e 28 62
e 28 77
e 28 91
e 28 93
e 28 131
e 28 137
e 28 184
e 28 194
e 29 34
e 29 50
e 29 129
e 29 137
e 29 185
e 30 109
e 30 135
e 31 33
e 31 74
e 31 91
e 31 196
e 32 46
e 32 171
e 33 40
e 33 45
e 33 50
e 33 58
e 33 62
e 33 63
e 33 64
e 33 75
e 33 82
e 33 97
e 33 108
e 33 122
e 33 146
e 33 162
e 33 164
e 33 179
e 33 183
e 33 190
e 33 200
e 34 54
e 34 73
e 34 118
e 34 119
e 34 126
e 34 135
e 34 152
e 35 51
e 35 54
e 35 149
e 35 166
e 36 87
e 37 90
e 37 92
e 37 120
e 37 176
e 37 197
e 38 40
e 38 45
e 39 51
e 39 93
e 39 136
e 39 158
e 40 77
e 40 104
e 40 180
e 40 195
e 41 74
e 41 79
e 41 133
e 41 136
e 41 141
e 41 143
e 41 173
e 42 83
e 42 149
e 42 153
e 43 46
e 43 55
e 43 69
e 43 76
e 43 98
e 43 145
e 43 167
e 43 189
e 43 200
e 44 45
e 44 58
e 44 80
e 44 93
e 44 151
e 44 198
e 44 200
e 45 68
e 45 89
e 45 104
e 45 140
e 45 148
e 45 164
e 45 192
e 46 82
e 46 128
e 47 52
e 47 58
e 47 71
e 47 76
e 47 96
e 47 109
e 47 132
e 48 53
e 48 57
e 48 68
e 48 84
e 48 153
e 48 160
e 48 183
e 48 190
e 49 57
e 49 183
e 50 52
e 50 59
e 50 101
e 51 70
e 51 100
e 51 150
e 52 72
e 52 139
e 52 147
e 52 191
e 53 60
e 53 92
e 53 102
e 53 129
e 53 155
e 53 199
e 54 91
e 54 104
e 54 129
e 55 64
e 55 115
e 55 116
e 55 173
e 56 124
e 56 170
e 56 182
e 57 72
e 57 81
e 57 89
e 57 95
e 57 97
e 57 100
e 57 115
e 57 126
e 57 131
e 57 139
e 57 174
e 57 195
e 58 97
e 58 185
e 59 61
e 59 63
e 59 69
e 59 87
e 59 92
e 59 96
e 59 117
e 59 134
e 59 148
e 59 150
e 59 154
e 59 160
e 59 168
e 59 169
e 60 76
e 60 78
e 60 170
e 61 90
e 61 191
e 62 200
e 63 79
e 63 108
e 63 140
e 64 66
e 64 76
e 64 86
e 65 75
e 65 86
e 65 88
e 65 163
e 65 167
e 65 181
e 66 78
e 66 120
e 66 132
e 66 176
e 67 113
e 67 152
e 68 95
e 68 120
e 68 175
e 69 73
e 69 74
e 69 131
e 69 198
e 71 110
e 71 118
e 72 81
e 72 101
e 73 94
e 73 116
e 73 127
e 73 141
e 75 106
e 75 147
e 75 159
e 75 169
e 75 191
e 76 142
e 76 156
e 77 84
e 77 143
e 78 117
e 78 146
e 80 114
e 80 117
e 80 125
e 80 126
e 80 152
e 80 162
e 81 83
e 81 102
e 81 170
e 81 175
e 81 188
e 82 114
e 82 148
e 83 94
e 83 108
e 83 109
e 83 113
e 83 119
e 83 197
e 84 95
e 86 88
e 86 89
e 86 156
e 87 155
e 88 111
e 88 191
e 89 113
e 89 174
e 90 99
e 90 170
e 91 110
e 91 172
e 92 111
e 92 133
e 93 102
e 93 113
e 95 121
e 95 126
e 95 133
e 95 142
e 95 153
e 95 186
e 96 97
e 96 112
e 96 121
e 98 130
e 98 192
e 99 103
e 99 155
e 99 159
e 100 130
e 102 118
e 103 137
e 103 143
e 103 146
e 103 151
e 104 144
e 107 128
e 108 152
e 108 157
e 110 127
e 112 114
e 113 184
e 115 118
e 117 147
e 118 187
e 122 180
e 126 194
e 126 196
e 128 144
e 129 171
e 129 185
e 130 149
e 131 163
e 131 185
e 132 150
e 132 182
e 133 140
e 133 156
e 135 140
e 135 171
e 137 138
e 138 193
e 140 162
e 141 187
e 143 161
e 143 178
e 143 189
e 145 181
e 147 163
e 147 183
e 148 151
e 148 153
e 148 160
e 150 165
e 150 166
e 150 172
e 154 171
e 154 197
e 158 167
e 158 181
e 158 193
e 159 160
e 161 164
e 162 178
e 165 186
e 166 176
e 166 184
e 171 195
e 173 175
e 174 199
e 177 196
e 182 196
